p cnf 22 10
e 1 2 3 4 0
a 5 6 7 0
e 8 9 0
a 10 0
e 11 0
a 12 13 0
e 14 15 0
a 16 17 18 0
e 19 0
a 20 0
e 21 0
a 22 0
-8 -19 -13 9 3 0
-20 11 5 0
10 -16 0
-18 6 -1 0
-8 -9 -16 3 7 0
-20 -2 -11 9 0
9 -18 -21 20 -7 0
2 21 15 -9 0
13 -22 -14 5 17 0
-19 -13 9 -1 0
